
(set-logic ALL) 

(declare-datatype MyList ((Nil) (Cons (head Real) (tail MyList)) )) 
(declare-fun l0 () MyList) 
(declare-fun l1 () MyList) 
(declare-fun l2 () MyList) 
(declare-fun l3 () MyList) 
(declare-fun i0 () Real) 
(declare-fun i1 () Real) 
(assert (and (= l3 Nil) (= l3 Nil) (= l2 l3)) )
(assert (= l3 Nil) )
(assert (= l0 Nil) )
(assert (is-Cons Nil) )
(assert (= l2 Nil) )
(assert (and (= l1 l0) (is-Nil l3) (is-Cons Nil) (= l2 Nil)) )
(assert (and (is-Cons l0) (= l3 l2) (= l0 Nil) (= l1 Nil)) )
(assert (or (= l2 l0) (is-Nil Nil) (is-Cons Nil)) )
(check-sat)
